placement_example_non_empty.sol
# Objective value = 15
e11 0
e12 0
e13 0
e14 2
e21 0
e22 0
e23 1
e24 1
e31 1
e32 0
e33 0
e34 0
